
Gurobi 11.0.0 (linux64) logging started Mon Apr 15 09:04:10 2024

Set parameter LogFile to value "/lustre1/scratch/348/vsc34888/JointResearch/05.Models/06.Benchmarking/L.Cont_Investments_per_hour/RTS24_ByStages_nc80/openStarNet_RTS24_ByStages_nc80.log"
Set parameter Method to value 2
Set parameter MIPFocus to value 1
Set parameter Presolve to value 2
Set parameter RINS to value 100
Set parameter MIPGap to value 0.01
Set parameter Threads to value 36
Set parameter TimeLimit to value 259200
Set parameter IterationLimit to value 760000000
Gurobi Optimizer version 11.0.0 build v11.0.0rc2 (linux64 - "Rocky Linux 8.8 (Green Obsidian)")

CPU model: Intel(R) Xeon(R) Gold 6140 CPU @ 2.30GHz, instruction set [SSE2|AVX|AVX2|AVX512]
Thread count: 36 physical cores, 36 logical processors, using up to 36 threads

Optimize a model with 31123 rows, 18725 columns and 83364 nonzeros
Model fingerprint: 0x51291d96
Variable types: 18695 continuous, 30 integer (30 binary)
Coefficient statistics:
  Matrix range     [3e-02, 5e+02]
  Objective range  [1e+00, 1e+00]
  Bounds range     [4e-04, 3e+00]
  RHS range        [4e-04, 3e+00]
Presolve removed 16700 rows and 8836 columns
Presolve time: 0.19s
Presolved: 14423 rows, 9889 columns, 50842 nonzeros
Variable types: 9859 continuous, 30 integer (30 binary)
Found heuristic solution: objective 329.4765044
Root relaxation presolved: 14423 rows, 9889 columns, 50842 nonzeros

Root barrier log...

Ordering time: 0.01s

Barrier statistics:
 Dense cols : 30
 AA' NZ     : 1.067e+05
 Factor NZ  : 2.781e+05 (roughly 12 MB of memory)
 Factor Ops : 5.921e+06 (less than 1 second per iteration)
 Threads    : 36

                  Objective                Residual
Iter       Primal          Dual         Primal    Dual     Compl     Time
   0   7.91544484e+05 -5.28491629e+07  6.18e+00 1.15e+02  5.06e+03     0s
   1   1.33460685e+05 -1.50331182e+07  8.43e-01 1.81e-09  7.42e+02     0s
   2   4.62270405e+04 -2.24282598e+06  1.42e-01 4.41e-09  8.93e+01     0s
   3   2.08010605e+04 -3.32117225e+05  2.97e-03 3.53e-10  1.17e+01     0s
   4   5.31736459e+03 -3.31263565e+04  1.66e-04 2.42e-11  1.26e+00     0s
   5   9.07267135e+02 -6.40628817e+03  1.08e-05 4.90e-12  2.40e-01     0s
   6   5.47636891e+02 -3.41041785e+03  1.50e-06 2.61e-12  1.30e-01     0s
   7   4.53547419e+02 -1.08397775e+03  7.82e-07 9.09e-13  5.05e-02     0s
   8   3.35428659e+02 -2.99756125e+02  3.88e-07 9.09e-13  2.09e-02     0s
   9   2.72711932e+02 -9.04035988e+00  2.10e-07 9.09e-13  9.26e-03     0s
  10   2.37957217e+02  7.73419983e+01  1.24e-07 9.09e-13  5.28e-03     0s
  11   2.08880041e+02  1.45161036e+02  5.73e-08 9.09e-13  2.09e-03     0s
  12   1.94757875e+02  1.70819095e+02  2.59e-08 1.82e-12  7.87e-04     0s
  13   1.90820098e+02  1.77410700e+02  1.75e-08 4.55e-13  4.41e-04     0s
  14   1.87892752e+02  1.79010872e+02  1.10e-08 4.55e-13  2.92e-04     0s
  15   1.87529895e+02  1.80064238e+02  1.01e-08 4.55e-13  2.45e-04     1s
  16   1.85683908e+02  1.81793692e+02  5.91e-09 9.09e-13  1.28e-04     1s
  17   1.84268148e+02  1.82605474e+02  2.29e-09 1.82e-12  5.47e-05     1s
  18   1.83783995e+02  1.83025736e+02  1.10e-09 9.09e-13  2.49e-05     1s
  19   1.83504951e+02  1.83184236e+02  4.40e-10 4.55e-13  1.05e-05     1s
  20   1.83375604e+02  1.83296391e+02  1.29e-10 9.09e-13  2.60e-06     1s
  21   1.83337687e+02  1.83310322e+02  1.02e-10 9.09e-13  9.00e-07     1s
  22   1.83326297e+02  1.83314540e+02  3.57e-10 4.55e-13  3.87e-07     1s
  23   1.83323176e+02  1.83318108e+02  7.73e-10 1.83e-12  1.67e-07     1s
  24   1.83321287e+02  1.83319119e+02  2.51e-10 1.01e-12  7.13e-08     1s
  25   1.83320429e+02  1.83319416e+02  1.01e-10 9.09e-13  3.33e-08     1s
  26   1.83320313e+02  1.83320165e+02  1.61e-09 9.09e-13  4.85e-09     1s
  27   1.83320273e+02  1.83320245e+02  1.47e-09 1.62e-12  9.16e-10     1s
  28   1.83320270e+02  1.83320249e+02  1.65e-08 1.35e-12  6.97e-10     1s
  29   1.83320268e+02  1.83320265e+02  3.30e-09 9.09e-13  1.08e-10     1s
  30   1.83320268e+02  1.83320268e+02  1.47e-10 9.09e-13  7.66e-13     1s

Barrier solved model in 30 iterations and 0.63 seconds (0.58 work units)
Optimal objective 1.83320268e+02


Root relaxation: objective 1.833203e+02, 2056 iterations, 0.42 seconds (0.26 work units)

    Nodes    |    Current Node    |     Objective Bounds      |     Work
 Expl Unexpl |  Obj  Depth IntInf | Incumbent    BestBd   Gap | It/Node Time

     0     0  183.32027    0   22  329.47650  183.32027  44.4%     -    0s
H    0     0                     263.5708574  186.49224  29.2%     -    1s
     0     0  186.49224    0   18  263.57086  186.49224  29.2%     -    1s
     0     0  186.49224    0   18  263.57086  186.49224  29.2%     -    1s
     0     0  186.98694    0   18  263.57086  186.98694  29.1%     -    2s
     0     0  187.01852    0   21  263.57086  187.01852  29.0%     -    2s
     0     0  187.01852    0   21  263.57086  187.01852  29.0%     -    2s
H    0     0                     252.3673846  187.01852  25.9%     -    2s
     0     0  187.24938    0   17  252.36738  187.24938  25.8%     -    2s
     0     0  187.30579    0   18  252.36738  187.30579  25.8%     -    3s
     0     0  187.30988    0   19  252.36738  187.30988  25.8%     -    3s
     0     0  187.31154    0   19  252.36738  187.31154  25.8%     -    3s
     0     0  187.31154    0   19  252.36738  187.31154  25.8%     -    3s
H    0     0                     248.0483971  187.31154  24.5%     -    3s
     0     0  187.36725    0   14  248.04840  187.36725  24.5%     -    3s
     0     0  187.37298    0   14  248.04840  187.37298  24.5%     -    3s
     0     0  187.37429    0   17  248.04840  187.37429  24.5%     -    3s
     0     0  187.37429    0   17  248.04840  187.37429  24.5%     -    3s
     0     0  189.63260    0   17  248.04840  189.63260  23.6%     -    5s
H    0     0                     218.6656445  189.63260  13.3%     -   32s
     0     2  189.63260    0   17  218.66564  189.63260  13.3%     -   33s
    61    94  197.28324    6   17  218.66564  193.04252  11.7%   863   35s
H   97   130                     217.3072756  193.52615  10.9%   750   62s
H  109   130                     217.0454255  193.56481  10.8%   712   62s
   457   380     cutoff   12       217.04543  194.15885  10.5%   474   65s
  1124   563  209.35215   14    9  217.04543  194.15885  10.5%   403   70s
  1178   581  212.61925   15    8  217.04543  194.15885  10.5%   403   81s
  2284   718     cutoff   17       217.04543  197.40999  9.05%   361   85s
  4299  1010     cutoff   16       217.04543  204.84246  5.62%   319  117s
  5577  1287  216.89539   11   12  217.04543  206.80052  4.72%   301  120s
  8478  1741  217.03012   18    3  217.04543  209.50018  3.48%   266  143s
  9694  1825  213.83143   16    7  217.04543  209.84169  3.32%   258  170s
 12655  1978  216.06806   15    7  217.04543  211.42049  2.59%   239  175s
 16667  1972  215.66749   20    3  217.04543  212.65153  2.02%   222  195s
 18881  1826  216.75558   21    3  217.04543  213.14985  1.79%   214  216s
 22812   958  214.96458   19    4  217.04543  214.12681  1.34%   204  220s

Cutting planes:
  Learned: 1
  Gomory: 1
  Implied bound: 148
  MIR: 733
  Relax-and-lift: 35

Explored 25880 nodes (5032946 simplex iterations) in 222.48 seconds (256.43 work units)
Thread count was 36 (of 36 available processors)

Solution count 7: 217.045 217.307 218.666 ... 329.477

Optimal solution found (tolerance 1.00e-02)
Best objective 2.170454254636e+02, best bound 2.151561313051e+02, gap 0.8705%

Gurobi 11.0.0 (linux64) logging started Mon Apr 15 09:07:56 2024

Set parameter LogFile to value "/lustre1/scratch/348/vsc34888/JointResearch/05.Models/06.Benchmarking/L.Cont_Investments_per_hour/RTS24_ByStages_nc80/openStarNet_RTS24_ByStages_nc80.log"
Set parameter Method to value 2
Set parameter MIPFocus to value 1
Set parameter Presolve to value 2
Set parameter RINS to value 100
Set parameter MIPGap to value 0.01
Set parameter Threads to value 36
Set parameter TimeLimit to value 259200
Set parameter IterationLimit to value 760000000
Gurobi Optimizer version 11.0.0 build v11.0.0rc2 (linux64 - "Rocky Linux 8.8 (Green Obsidian)")

CPU model: Intel(R) Xeon(R) Gold 6140 CPU @ 2.30GHz, instruction set [SSE2|AVX|AVX2|AVX512]
Thread count: 36 physical cores, 36 logical processors, using up to 36 threads

Optimize a model with 31123 rows, 18695 columns and 73734 nonzeros
Model fingerprint: 0xcad9fd5e
Coefficient statistics:
  Matrix range     [3e-02, 5e+02]
  Objective range  [1e+00, 1e+00]
  Bounds range     [4e-04, 3e+00]
  RHS range        [4e-04, 5e+01]
Presolve removed 26620 rows and 10836 columns
Presolve time: 0.04s
Presolved: 4503 rows, 7859 columns, 19722 nonzeros

Ordering time: 0.00s

Barrier statistics:
 AA' NZ     : 1.034e+04
 Factor NZ  : 3.832e+04 (roughly 4 MB of memory)
 Factor Ops : 5.539e+05 (less than 1 second per iteration)
 Threads    : 1

                  Objective                Residual
Iter       Primal          Dual         Primal    Dual     Compl     Time
   0   3.29400479e+06 -3.51975416e+07  1.47e+01 5.02e+02  4.09e+04     0s
   1   2.20907752e+05 -2.80402786e+07  8.47e-01 2.50e-11  4.13e+03     0s
   2   7.56459347e+04 -8.32685151e+06  2.20e-01 4.34e-11  9.02e+02     0s
   3   3.94602624e+04 -2.17870892e+06  4.19e-02 2.12e-11  1.94e+02     0s
   4   2.69473316e+04 -2.44590321e+05  1.47e-05 1.27e-11  2.14e+01     0s
   5   1.20836060e+04 -6.25948053e+04  2.39e-06 7.28e-12  5.89e+00     0s
   6   3.84987994e+03 -9.95625931e+03  5.56e-07 3.64e-12  1.09e+00     0s
   7   5.44432194e+02 -1.28347802e+03  7.20e-10 3.64e-12  1.44e-01     0s
   8   3.90195951e+02 -2.14615156e+02  6.13e-11 3.64e-12  4.77e-02     0s
   9   2.92714396e+02  5.12478279e+01  1.80e-11 3.64e-12  1.91e-02     0s
  10   2.53507729e+02  1.49053918e+02  8.66e-12 3.64e-12  8.24e-03     0s
  11   2.35468280e+02  1.88176610e+02  4.29e-12 1.82e-12  3.73e-03     0s
  12   2.23757715e+02  2.04342252e+02  3.07e-12 3.64e-12  1.53e-03     0s
  13   2.19638471e+02  2.15560304e+02  2.42e-12 3.64e-12  3.22e-04     0s
  14   2.17626367e+02  2.16834194e+02  1.35e-11 3.64e-12  6.25e-05     0s
  15   2.17114113e+02  2.17023594e+02  1.03e-11 3.64e-12  7.14e-06     0s
  16   2.17047203e+02  2.17042627e+02  4.09e-11 3.64e-12  3.61e-07     0s
  17   2.17045484e+02  2.17045394e+02  2.36e-11 3.64e-12  7.17e-09     0s
  18   2.17045426e+02  2.17045425e+02  5.77e-12 3.64e-12  7.17e-12     0s
  19   2.17045425e+02  2.17045425e+02  1.22e-11 3.64e-12  6.50e-17     0s

Barrier solved model in 19 iterations and 0.09 seconds (0.09 work units)
Optimal objective 2.17045425e+02

Crossover log...

     921 DPushes remaining with DInf 0.0000000e+00                 0s
       0 DPushes remaining with DInf 0.0000000e+00                 0s

     235 PPushes remaining with PInf 0.0000000e+00                 0s
       0 PPushes remaining with PInf 0.0000000e+00                 0s

  Push phase complete: Pinf 0.0000000e+00, Dinf 1.3382867e-12      0s

Iteration    Objective       Primal Inf.    Dual Inf.      Time
     256    2.1704543e+02   0.000000e+00   0.000000e+00      0s

Use crossover to convert LP symmetric solution to basic solution...
Crossover log...

     137 PPushes remaining with PInf 0.0000000e+00                 0s
       0 PPushes remaining with PInf 0.0000000e+00                 0s

  Push phase complete: Pinf 0.0000000e+00, Dinf 1.6986329e-12      0s

Iteration    Objective       Primal Inf.    Dual Inf.      Time
     396    2.1704543e+02   0.000000e+00   0.000000e+00      0s

Solved in 396 iterations and 0.13 seconds (0.11 work units)
Optimal objective  2.170454255e+02
